170
0 22 84 8 154 144 97 140 62 117 
21 82 55 123 20 41 1 102 89 47 
12 16 15 11 85 110 37 108 29 124 
60 146 107 63 156 113 65 135 165 93 
36 44 131 74 77 80 114 134 56 120 
132 141 160 122 127 129 111 87 115 133 
51 68 33 169 70 34 151 159 35 72 
109 23 26 121 57 103 2 79 94 88 
7 147 13 161 136 142 91 48 149 143 
139 130 167 39 78 76 6 53 42 27 
67 18 95 32 168 64 86 9 25 69 
43 17 98 99 105 30 92 104 71 112 
153 28 4 155 46 100 125 19 14 166 
162 81 118 119 137 58 54 138 158 40 
152 61 5 73 128 24 52 96 148 3 
38 145 31 49 66 10 116 150 164 45 
83 106 101 90 50 157 126 163 59 75 
